;; sequence(s): A33536
;; terms: 1 1 8 125 2744 74088 2299968 78953589 2924207000 114933031928 4738245926336 203152294091656 9000469593857728 410006814589000000 19129277941464384000 911218671317138401125 44202915427981062663000
;; small program: loop(loop2((2 * ((2 * (x * y)) - x)) div (1 + y), y, 1 + 2, x, y), x, 1)
;; fast program: ((loop((x * x) * x, 1, loop(2 * ((x - (x div y)) + x), x, 1)) div (1 + x)) div (1 + x)) div (1 + x)
(set-logic UFNIA)
(define-fun divf ((a Int) (b Int)) Int (ite (< 0 b) (div a b) (div (- a) (- b))))
(declare-fun f1 (Int Int) Int)
(declare-fun g1 (Int Int) Int)
(declare-fun h1 () Int)
(declare-fun i1 (Int) Int)
(declare-fun j1 (Int Int) Int)
(declare-fun u1 (Int Int Int) Int)
(declare-fun v1 (Int Int Int) Int)
(declare-fun w1 (Int Int) Int)
(declare-fun f0 (Int Int) Int)
(declare-fun g0 (Int) Int)
(declare-fun h0 () Int)
(declare-fun u0 (Int Int) Int)
(declare-fun v0 (Int) Int)
(declare-fun small (Int) Int)
(declare-fun f2 (Int) Int)
(declare-fun g2 () Int)
(declare-fun f3 (Int Int) Int)
(declare-fun g3 (Int) Int)
(declare-fun h3 () Int)
(declare-fun u3 (Int Int) Int)
(declare-fun v3 (Int) Int)
(declare-fun h2 (Int) Int)
(declare-fun u2 (Int Int) Int)
(declare-fun v2 (Int) Int)
(declare-fun fast (Int) Int)
(assert (forall ((x Int) (y Int)) (= (f1 x y) (divf (* 2 (- (* 2 (* x y)) x)) (+ 1 y)))))
(assert (forall ((x Int) (y Int)) (= (g1 x y) y)))
(assert (= h1 (+ 1 2)))
(assert (forall ((x Int)) (= (i1 x) x)))
(assert (forall ((x Int) (y Int)) (= (j1 x y) y)))
(assert (forall ((x Int) (y Int) (z Int)) (= (u1 x y z) (ite (<= x 0) y (f1 (u1 (- x 1) y z) (v1 (- x 1) y z))))))
(assert (forall ((x Int) (y Int) (z Int)) (= (v1 x y z) (ite (<= x 0) z (g1 (u1 (- x 1) y z) (v1 (- x 1) y z))))))
(assert (forall ((x Int) (y Int)) (= (w1 x y) (u1 h1 (i1 x) (j1 x y)))))
(assert (forall ((x Int) (y Int)) (= (f0 x y) (w1 x y))))
(assert (forall ((x Int)) (= (g0 x) x)))
(assert (= h0 1))
(assert (forall ((x Int) (y Int)) (= (u0 x y) (ite (<= x 0) y (f0 (u0 (- x 1) y) x)))))
(assert (forall ((x Int)) (= (v0 x) (u0 (g0 x) h0))))
(assert (forall ((x Int)) (= (small x) (v0 x))))
(assert (forall ((x Int)) (= (f2 x) (* (* x x) x))))
(assert (= g2 1))
(assert (forall ((x Int) (y Int)) (= (f3 x y) (* 2 (+ (- x (divf x y)) x)))))
(assert (forall ((x Int)) (= (g3 x) x)))
(assert (= h3 1))
(assert (forall ((x Int) (y Int)) (= (u3 x y) (ite (<= x 0) y (f3 (u3 (- x 1) y) x)))))
(assert (forall ((x Int)) (= (v3 x) (u3 (g3 x) h3))))
(assert (forall ((x Int)) (= (h2 x) (v3 x))))
(assert (forall ((x Int) (y Int)) (= (u2 x y) (ite (<= x 0) y (f2 (u2 (- x 1) y))))))
(assert (forall ((x Int)) (= (v2 x) (u2 g2 (h2 x)))))
(assert (forall ((x Int)) (= (fast x) (divf (divf (divf (v2 x) (+ 1 x)) (+ 1 x)) (+ 1 x)))))
(assert (exists ((c Int)) (and (>= c 0) (not (= (small c) (fast c))))))
(check-sat)
